p cnf 50 50
-26 -41 -44 0
-31 44 -18 0
-34 48 46 0
-7 25 -48 0
-32 -49 -5 0
39 -26 17 0
-36 12 -23 0
-40 -23 -38 0
-38 -36 -9 0
-17 -43 -11 0
46 -20 14 0
-50 28 44 0
-8 44 -41 0
-21 -4 -10 0
-10 49 -29 0
43 8 41 0
18 -48 -40 0
28 34 36 0
26 -42 -29 0
-45 -41 5 0
-39 -9 -46 0
20 -19 9 0
-16 17 -35 0
-25 -11 43 0
-16 2 42 0
43 40 39 0
-1 33 -36 0
37 35 -32 0
38 6 -44 0
-28 -23 35 0
39 -3 30 0
4 -34 -6 0
4 39 -24 0
41 -9 42 0
-46 -22 -29 0
40 -42 -12 0
26 -9 36 0
-37 3 7 0
-49 5 29 0
-26 -17 -27 0
20 -10 -23 0
-21 -45 14 0
36 -8 16 0
-41 33 -44 0
-50 -4 19 0
-26 29 30 0
45 33 36 0
34 -39 31 0
6 10 17 0
1 -43 -39 0
